
Gurobi 11.0.3 (win64) logging started Tue Sep  3 16:01:49 2024

Set parameter LogFile to value "C:\Users\ealvarezq\Desktop\D.Representative_days_based_on_RES_and_Demand\IEEE118_mod2_ByStages_nc70/openStarNet_IEEE118_mod2_ByStages_nc70.log"
Set parameter Method to value 2
Set parameter MIPFocus to value 1
Set parameter Presolve to value 2
Set parameter RINS to value 100
Set parameter MIPGap to value 0.01
Set parameter Threads to value 24
Set parameter TimeLimit to value 259200
Set parameter IterationLimit to value 760000000
Gurobi Optimizer version 11.0.3 build v11.0.3rc0 (win64 - Windows Server 2019.0 (17763.2))

CPU model: AMD Ryzen Threadripper PRO 3955WX 16-Cores, instruction set [SSE2|AVX|AVX2]
Thread count: 16 physical cores, 32 logical processors, using up to 24 threads

Optimize a model with 99473 rows, 73560 columns and 256246 nonzeros
Model fingerprint: 0x29878c7a
Variable types: 73526 continuous, 34 integer (34 binary)
Coefficient statistics:
  Matrix range     [2e-03, 9e+03]
  Objective range  [1e+00, 1e+00]
  Bounds range     [1e-04, 3e+00]
  RHS range        [2e-04, 3e+00]
Presolve removed 67330 rows and 34093 columns
Presolve time: 0.65s
Presolved: 32143 rows, 39467 columns, 117440 nonzeros
Variable types: 39433 continuous, 34 integer (34 binary)
Root relaxation presolved: 32143 rows, 39467 columns, 117440 nonzeros

Root barrier log...

Ordering time: 0.03s

Barrier statistics:
 Dense cols : 34
 AA' NZ     : 1.457e+05
 Factor NZ  : 5.639e+05 (roughly 33 MB of memory)
 Factor Ops : 1.179e+07 (less than 1 second per iteration)
 Threads    : 23

                  Objective                Residual
Iter       Primal          Dual         Primal    Dual     Compl     Time
   0   8.83446146e+06 -5.82013889e+08  1.55e+01 1.18e+03  2.71e+04     1s
   1   2.12239186e+06 -2.22558615e+08  3.38e+00 1.40e-08  5.56e+03     1s
   2   5.57734070e+05 -1.10345580e+08  5.88e-01 1.17e-08  1.59e+03     2s
   3   3.48644781e+05 -2.61941838e+07  1.83e-01 2.67e-09  3.43e+02     2s
   4   2.30238974e+05 -3.61923143e+06  2.60e-02 2.80e-10  4.32e+01     2s
   5   1.37763310e+05 -1.13183402e+06  9.42e-03 1.02e-10  1.37e+01     2s
   6   6.47511815e+04 -7.32009824e+05  3.75e-03 5.22e-11  8.50e+00     2s
   7   3.10170064e+04 -1.55557682e+05  1.23e-03 1.09e-11  1.98e+00     2s
   8   1.48922923e+04 -3.55354551e+04  4.25e-04 8.78e-12  5.33e-01     2s
   9   1.01220104e+04 -2.51789216e+04  2.47e-04 5.52e-12  3.73e-01     2s
  10   6.18949779e+03 -1.23483195e+04  1.17e-04 6.61e-12  1.96e-01     2s
  11   4.56632363e+03 -5.07675666e+03  7.00e-05 6.64e-12  1.02e-01     2s
  12   2.89198863e+03 -1.43859880e+03  3.21e-05 1.21e-11  4.57e-02     2s
  13   2.24854813e+03 -4.85596746e+02  1.95e-05 7.68e-12  2.89e-02     2s
  14   1.76843014e+03  4.16996665e+02  1.07e-05 6.03e-12  1.43e-02     2s
  15   1.41883873e+03  8.29039520e+02  4.66e-06 6.33e-12  6.23e-03     2s
  16   1.27120408e+03  9.77625277e+02  2.24e-06 2.50e-12  3.10e-03     2s
  17   1.22307492e+03  1.04196902e+03  1.48e-06 5.81e-12  1.91e-03     2s
  18   1.18913402e+03  1.06773144e+03  9.45e-07 3.73e-12  1.28e-03     2s
  19   1.16375834e+03  1.08390921e+03  5.49e-07 2.55e-12  8.43e-04     2s
  20   1.15443655e+03  1.09801780e+03  4.07e-07 3.17e-12  5.96e-04     2s
  21   1.14011120e+03  1.10711489e+03  1.89e-07 3.81e-12  3.48e-04     2s
  22   1.13393339e+03  1.11846019e+03  9.75e-08 3.83e-12  1.63e-04     2s
  23   1.13017115e+03  1.12399334e+03  4.30e-08 2.90e-12  6.52e-05     2s
  24   1.12908950e+03  1.12541827e+03  2.78e-08 2.28e-12  3.88e-05     2s
  25   1.12818286e+03  1.12611305e+03  1.53e-08 2.71e-12  2.19e-05     2s
  26   1.12756333e+03  1.12659345e+03  6.89e-09 2.90e-12  1.02e-05     2s
  27   1.12718519e+03  1.12676799e+03  3.66e-09 5.01e-12  4.40e-06     2s
  28   1.12715402e+03  1.12686956e+03  2.90e-09 3.75e-12  3.00e-06     2s
  29   1.12711105e+03  1.12695458e+03  1.81e-09 3.30e-12  1.65e-06     2s
  30   1.12704707e+03  1.12702816e+03  9.69e-10 3.61e-12  2.00e-07     2s
  31   1.12703932e+03  1.12703362e+03  3.49e-09 6.16e-12  6.02e-08     2s
  32   1.12703764e+03  1.12703592e+03  4.12e-10 3.10e-12  1.81e-08     2s
  33   1.12703721e+03  1.12703667e+03  1.22e-09 5.82e-12  5.69e-09     2s
  34   1.12703707e+03  1.12703695e+03  7.68e-10 3.77e-12  1.25e-09     2s
  35   1.12703700e+03  1.12703700e+03  1.66e-09 3.40e-12  5.71e-12     2s

Barrier solved model in 35 iterations and 2.21 seconds (1.24 work units)
Optimal objective 1.12703700e+03


Root relaxation: objective 1.127037e+03, 2801 iterations, 1.81 seconds (1.03 work units)

    Nodes    |    Current Node    |     Objective Bounds      |     Work
 Expl Unexpl |  Obj  Depth IntInf | Incumbent    BestBd   Gap | It/Node Time

     0     0 1127.03700    0   23          - 1127.03700      -     -    3s
H    0     0                    7787.7678189 1127.03700  85.5%     -    4s
H    0     0                    3883.0447910 1127.03700  71.0%     -    5s
     0     0 1149.25688    0   24 3883.04479 1149.25688  70.4%     -    8s
H    0     0                    1339.8496603 1149.25688  14.2%     -    9s
H    0     0                    1336.1341366 1150.32012  13.9%     -   10s
     0     0 1150.70467    0   25 1336.13414 1150.70467  13.9%     -   10s
     0     0 1150.70472    0   25 1336.13414 1150.70472  13.9%     -   10s
     0     0 1150.70472    0   25 1336.13414 1150.70472  13.9%     -   10s
     0     0 1151.89071    0   24 1336.13414 1151.89071  13.8%     -   11s
     0     0 1152.08281    0   24 1336.13414 1152.08281  13.8%     -   12s
     0     0 1152.08555    0   24 1336.13414 1152.08555  13.8%     -   12s
     0     0 1152.08722    0   24 1336.13414 1152.08722  13.8%     -   12s
     0     0 1153.64290    0   23 1336.13414 1153.64290  13.7%     -   14s
     0     0 1153.64516    0   23 1336.13414 1153.64516  13.7%     -   14s
     0     0 1153.72097    0   23 1336.13414 1153.72097  13.7%     -   16s
     0     0 1153.72133    0   23 1336.13414 1153.72133  13.7%     -   17s
H    0     0                    1289.1661229 1153.72133  10.5%     -  214s
     0     2 1153.72133    0   23 1289.16612 1153.72133  10.5%     -  215s
     3     8 1245.87287    2   18 1289.16612 1163.98703  9.71%  2352  223s
     7    14     cutoff    3      1289.16612 1169.81050  9.26%  2392  227s
    15    20 1204.56573    4   19 1289.16612 1195.57591  7.26%  2116  231s
    49    52     cutoff    6      1289.16612 1209.57732  6.17%  1434  239s
    73    62 1250.75495    7   15 1289.16612 1211.27885  6.04%  1225  242s
    97    64 1259.01174    8   14 1289.16612 1211.27885  6.04%  1112  246s
   150    84 1273.47680    9   13 1289.16612 1221.94056  5.21%   906  251s
   209    93 1286.50742   11   10 1289.16612 1221.94056  5.21%   800  255s
   273    89     cutoff   12      1289.16612 1226.36435  4.87%   739  261s
   351    90 1250.12563    9   13 1289.16612 1226.36435  4.87%   709  266s
   397    90     cutoff   11      1289.16612 1226.36435  4.87%   691  276s
   483   119 1280.58381   12    8 1289.16612 1226.36435  4.87%   672  281s
   617   111     cutoff   11      1289.16612 1226.36435  4.87%   610  291s
   680   102 1282.52294   13    8 1289.16612 1226.36435  4.87%   600  295s
   848    74     cutoff   12      1289.16612 1244.84038  3.44%   552  305s
  1003    79 1267.61862   11   12 1289.16612 1244.84038  3.44%   542  311s
  1093    45 1279.29880   13   10 1289.16612 1244.84038  3.44%   519  317s
  1181    33 1277.77916   12   11 1289.16612 1244.84038  3.44%   510  321s
  1300    13 1277.90847   12   10 1289.16612 1244.84038  3.44%   493  401s
  1343    14     cutoff   11      1289.16612 1255.52036  2.61%   491  410s

Cutting planes:
  Gomory: 1
  Implied bound: 165
  MIR: 366

Explored 1413 nodes (708749 simplex iterations) in 415.03 seconds (441.17 work units)
Thread count was 24 (of 32 available processors)

Solution count 5: 1289.17 1336.13 1339.85 ... 7787.77

Optimal solution found (tolerance 1.00e-02)
Best objective 1.289166122922e+03, best bound 1.280842787331e+03, gap 0.6456%

Gurobi 11.0.3 (win64) logging started Tue Sep  3 16:09:25 2024

Set parameter LogFile to value "C:\Users\ealvarezq\Desktop\D.Representative_days_based_on_RES_and_Demand\IEEE118_mod2_ByStages_nc70/openStarNet_IEEE118_mod2_ByStages_nc70.log"
Set parameter Method to value 2
Set parameter MIPFocus to value 1
Set parameter Presolve to value 2
Set parameter RINS to value 100
Set parameter MIPGap to value 0.01
Set parameter Threads to value 24
Set parameter TimeLimit to value 259200
Set parameter IterationLimit to value 760000000
Gurobi Optimizer version 11.0.3 build v11.0.3rc0 (win64 - Windows Server 2019.0 (17763.2))

CPU model: AMD Ryzen Threadripper PRO 3955WX 16-Cores, instruction set [SSE2|AVX|AVX2]
Thread count: 16 physical cores, 32 logical processors, using up to 24 threads

Optimize a model with 99473 rows, 73526 columns and 246692 nonzeros
Model fingerprint: 0xb9a3d932
Coefficient statistics:
  Matrix range     [2e-03, 9e+03]
  Objective range  [1e+00, 1e+00]
  Bounds range     [1e-04, 3e+00]
  RHS range        [2e-04, 3e+02]
Presolve removed 74062 rows and 32236 columns
Presolve time: 0.25s
Presolved: 25411 rows, 41439 columns, 99086 nonzeros

Ordering time: 0.02s

Barrier statistics:
 AA' NZ     : 8.377e+04
 Factor NZ  : 3.327e+05 (roughly 30 MB of memory)
 Factor Ops : 4.778e+06 (less than 1 second per iteration)
 Threads    : 24

                  Objective                Residual
Iter       Primal          Dual         Primal    Dual     Compl     Time
   0   1.58047699e+07 -2.98946222e+08  9.39e+01 9.23e+01  1.33e+04     1s
   1   2.05710867e+06 -9.08656253e+07  1.09e+01 1.48e-12  1.89e+03     1s
   2   4.65595315e+05 -1.70048246e+07  1.60e+00 1.36e-12  2.75e+02     1s
   3   1.73476142e+05 -2.52317056e+06  3.28e-02 9.09e-13  3.06e+01     1s
   4   7.04293964e+04 -5.61477037e+05  3.19e-03 5.68e-13  7.00e+00     1s
   5   2.86898678e+04 -1.33498473e+05  1.08e-03 3.41e-13  1.79e+00     1s
   6   1.18206089e+04 -6.05765827e+04  3.00e-04 4.02e-13  8.00e-01     1s
   7   6.99401825e+03 -1.76026820e+04  1.08e-04 2.61e-13  2.72e-01     1s
   8   5.07047878e+03 -7.24434265e+03  6.18e-05 2.70e-13  1.36e-01     1s
   9   3.46540787e+03 -2.77849649e+03  3.15e-05 2.68e-13  6.90e-02     1s
  10   2.43568941e+03 -6.24634139e+02  1.47e-05 2.41e-13  3.38e-02     1s
  11   1.88385395e+03  2.30366252e+02  7.10e-06 1.94e-13  1.83e-02     1s
  12   1.66492496e+03  6.74701305e+02  4.33e-06 2.18e-13  1.09e-02     1s
  13   1.52659160e+03  9.21899231e+02  2.66e-06 2.56e-13  6.68e-03     1s
  14   1.42412008e+03  1.09344161e+03  1.47e-06 2.47e-13  3.65e-03     1s
  15   1.37676091e+03  1.17823566e+03  9.21e-07 2.19e-13  2.19e-03     1s
  16   1.33011367e+03  1.24180104e+03  4.05e-07 2.63e-13  9.75e-04     1s
  17   1.30907523e+03  1.26464753e+03  1.92e-07 2.40e-13  4.91e-04     1s
  18   1.29581092e+03  1.27863098e+03  5.89e-08 2.43e-13  1.90e-04     1s
  19   1.29209088e+03  1.28437406e+03  2.47e-08 2.88e-13  8.52e-05     1s
  20   1.28998089e+03  1.28826284e+03  6.52e-09 2.43e-13  1.90e-05     1s
  21   1.28926706e+03  1.28907450e+03  6.07e-10 2.98e-13  2.13e-06     1s
  22   1.28918747e+03  1.28914538e+03  1.31e-10 2.74e-13  4.65e-07     1s
  23   1.28916876e+03  1.28916574e+03  2.51e-10 3.62e-13  3.33e-08     1s
  24   1.28916643e+03  1.28916609e+03  3.50e-10 2.31e-13  3.81e-09     1s
  25   1.28916612e+03  1.28916612e+03  1.62e-10 2.46e-13  3.29e-11     1s

Barrier solved model in 25 iterations and 1.15 seconds (0.44 work units)
Optimal objective 1.28916612e+03

Crossover log...

    7305 DPushes remaining with DInf 0.0000000e+00                 1s
       0 DPushes remaining with DInf 0.0000000e+00                 1s

     581 PPushes remaining with PInf 0.0000000e+00                 1s
       0 PPushes remaining with PInf 0.0000000e+00                 1s

  Push phase complete: Pinf 0.0000000e+00, Dinf 3.7013141e-12      1s

Iteration    Objective       Primal Inf.    Dual Inf.      Time
    1860    1.2891661e+03   0.000000e+00   0.000000e+00      1s

Solved in 1860 iterations and 1.37 seconds (0.53 work units)
Optimal objective  1.289166123e+03
